param n := 2;

param m := 2;

param K := 20;

param a :=
1 	 0.988861
2 	 0.748166
;
 param A :=
[1, *, *]:  1	2	:=
1	-0.439112	-0.793548	
2	0.578559	-0.104213	

[2, *, *]:  1	2	:=
1	0.817191	-0.424449	
2	-0.412772	-0.739943	
;